48289
[343, 342, 340, 370, 369, 344, 345, 346, 368, 367, 366, 349, 365, 350, 348, 347, 364, 363, 351, 362, 361, 360, 359, 358, 357, 356, 355, 354, 353, 352, 410, 409, 408, 407, 406, 405, 404, 413, 414, 415, 403, 402, 401, 399, 398, 397, 396, 395, 460, 461, 459, 462, 463, 464, 465, 466, 468, 467, 469, 473, 514, 515, 516, 517, 518, 246, 245, 244, 243, 242, 241, 203, 204, 205, 238, 237, 206, 239, 236, 234, 235, 233, 231, 232, 208, 184, 183, 182, 181, 180, 179, 178, 177, 176, 175, 174, 172, 173, 171, 170, 169, 168, 167, 151, 149, 148, 150, 147, 146, 145, 143, 144, 142, 141, 140, 139, 137, 138, 95, 99, 100, 101, 102, 103, 94, 105, 104, 106, 107, 108, 109, 84, 85, 83, 82, 81, 80, 79, 55, 56, 57, 54, 53, 52, 51, 50, 49, 46, 45, 44, 43, 48, 47, 1, 2, 3, 565, 564, 563, 566, 567, 568, 569, 0, 573, 572, 571, 570, 438, 437, 436, 439, 435, 434, 433, 432, 445, 444, 443, 446, 442, 441, 447, 448, 400, 449, 455, 450, 454, 453, 451, 452, 440, 431, 430, 429, 428, 427, 426, 424, 425, 416, 417, 419, 418, 420, 421, 422, 423, 412, 411, 393, 392, 391, 390, 260, 259, 258, 257, 256, 254, 255, 394, 457, 458, 456, 197, 198, 199, 200, 248, 247, 201, 202, 520, 519, 521, 522, 523, 524, 527, 530, 531, 532, 534, 533, 525, 526, 529, 528, 535, 536, 537, 538, 539, 540, 542, 541, 543, 544, 13, 547, 548, 546, 545, 549, 550, 551, 552, 553, 554, 555, 556, 559, 558, 557, 6, 5, 4, 562, 561, 560, 7, 8, 9, 10, 11, 12, 503, 504, 502, 501, 500, 499, 498, 497, 496, 481, 480, 482, 483, 484, 485, 486, 487, 488, 489, 491, 490, 495, 494, 493, 492, 471, 470, 472, 475, 474, 253, 251, 250, 252, 249, 196, 194, 195, 193, 192, 190, 191, 189, 188, 280, 279, 278, 276, 277, 262, 261, 275, 274, 273, 272, 263, 264, 388, 387, 389, 267, 266, 265, 386, 385, 383, 382, 384, 381, 380, 379, 377, 374, 373, 372, 371, 338, 337, 339, 341, 336, 335, 334, 333, 332, 268, 269, 270, 271, 298, 297, 296, 295, 294, 293, 292, 287, 291, 288, 289, 290, 286, 285, 284, 209, 210, 165, 166, 212, 213, 214, 211, 215, 216, 217, 218, 21, 22, 23, 24, 164, 25, 26, 29, 27, 28, 87, 86, 88, 89, 90, 91, 92, 93, 163, 154, 153, 162, 161, 160, 159, 155, 156, 157, 158, 152, 129, 128, 127, 126, 65, 64, 66, 67, 68, 69, 125, 124, 123, 131, 130, 132, 133, 134, 135, 136, 70, 71, 72, 74, 75, 76, 77, 59, 58, 60, 61, 62, 63, 73, 114, 115, 116, 117, 118, 121, 120, 98, 96, 97, 122, 119, 113, 112, 111, 110, 78, 40, 39, 41, 42, 38, 37, 36, 35, 34, 33, 32, 31, 30, 18, 17, 20, 19, 16, 15, 14, 221, 220, 219, 222, 223, 224, 225, 240, 226, 227, 228, 229, 230, 207, 185, 186, 187, 283, 282, 281, 307, 306, 305, 304, 303, 302, 301, 300, 299, 310, 309, 311, 308, 312, 313, 314, 315, 316, 317, 318, 319, 320, 321, 322, 325, 324, 323, 327, 328, 329, 326, 330, 331, 378, 376, 375, 479, 478, 477, 476, 513, 512, 510, 511, 509, 508, 507, 505, 506]
